17	4	3
30	31	38	35	4	39	34	
0	0	0	0	0	4	10	2	7	10	3	3	2	3	4
4	7	1	3	10	6	9	10	5	10	6	1	9
4	10	10	3	4	3	2	1	6	9	6	1	17
5	8	5	7	8	4	10	2	7	8	4	3	5	9	11
3	10	6	7	8	2	8	9	9	4	8	3	6	7	8
200	5	8	5	5	5	7	7	7	3	7	2	16	17
50	3	1	10	9	9	9	6	9	4	5	2	13	17
25	3	1	5	4	4	6	7	4	2	5	3	10	12	17
125	3	5	7	1	9	6	5	1	2	2	1	17
25	8	6	8	10	5	4	9	3	2	2	2	16	17
75	2	5	2	9	1	6	9	8	3	2	2	15	17
150	4	4	3	3	4	1	10	9	9	3	2	14	17
6	5	9	7	8	4	2	9	10	5	10	1	17
3	5	9	8	4	5	4	6	9	4	7	2	17	17
2	7	7	5	7	10	8	1	9	1	2	1	17
8	8	1	9	10	1	2	8	9	9	10	1	17
0	0	0	0	0	10	2	1	10	1	9	0
